100
1000
260
256
255
253
249
248
245
243
238
234
233
232
229
229
218
213
206
205
196
194
187
187
184
181
178
177
176
175
170
170
162
162
160
159
156
151
149
141
136
135
135
134
134
133
129
124
123
119
116
116
114
113
112
110
105
102
101
99
98
95
95
93
93
83
82
81
78
77
73
73
72
70
70
69
68
67
65
64
62
58
54
53
53
50
48
47
43
43
43
42
42
41
36
33
24
21
20
19
19
18
